p tw 1360 20401 7 
1 8 
1 71 
2 9 
2 10 
2 72 
3 7 
3 10 
3 281 
4 8 
4 9 
4 282 
5 7 
5 9 
5 1111 
6 8 
6 10 
6 1112 
11 17 
11 18 
11 331 
12 19 
12 20 
12 332 
13 17 
13 20 
13 401 
14 18 
14 19 
14 402 
15 17 
15 19 
15 1041 
16 18 
16 20 
16 1042 
21 27 
21 28 
21 691 
22 29 
22 30 
22 692 
23 27 
23 30 
23 751 
24 28 
24 29 
24 752 
25 27 
25 29 
25 1181 
26 28 
26 30 
26 1182 
31 37 
31 38 
31 221 
32 39 
32 40 
32 222 
33 37 
33 40 
33 451 
34 38 
34 39 
34 452 
35 37 
35 39 
35 631 
36 38 
36 40 
36 632 
41 47 
41 48 
41 271 
42 49 
42 50 
42 272 
43 47 
43 50 
43 1011 
44 48 
44 49 
44 1012 
45 47 
45 49 
45 1271 
46 48 
46 50 
46 1272 
51 57 
51 58 
51 761 
52 59 
52 60 
52 762 
53 57 
53 60 
53 901 
54 58 
54 59 
54 902 
55 57 
55 59 
55 941 
56 58 
56 60 
56 942 
61 67 
61 68 
61 171 
62 69 
62 70 
62 172 
63 67 
63 70 
63 341 
64 68 
64 69 
64 342 
65 67 
65 69 
65 731 
66 68 
66 70 
66 732 
71 77 
71 78 
72 79 
72 80 
73 77 
73 80 
73 173 
74 78 
74 79 
74 174 
75 77 
75 79 
75 921 
76 78 
76 80 
76 922 
81 87 
81 88 
81 541 
82 89 
82 90 
82 542 
83 87 
83 90 
83 1211 
84 88 
84 89 
84 1212 
85 87 
85 89 
85 1231 
86 88 
86 90 
86 1232 
91 97 
91 98 
91 661 
92 99 
92 100 
92 662 
93 97 
93 100 
93 871 
94 98 
94 99 
94 872 
95 97 
95 99 
95 1121 
96 98 
96 100 
96 1122 
101 107 
101 108 
101 261 
102 109 
102 110 
102 262 
103 107 
103 110 
103 403 
104 108 
104 109 
104 404 
105 107 
105 109 
105 971 
106 108 
106 110 
106 972 
111 117 
111 118 
111 611 
112 119 
112 120 
112 612 
113 117 
113 120 
113 1071 
114 118 
114 119 
114 1072 
115 117 
115 119 
115 1101 
116 118 
116 120 
116 1102 
121 127 
121 128 
121 571 
122 129 
122 130 
122 572 
123 127 
123 130 
123 881 
124 128 
124 129 
124 882 
125 127 
125 129 
125 1161 
126 128 
126 130 
126 1162 
131 137 
131 138 
131 671 
132 139 
132 140 
132 672 
133 137 
133 140 
133 721 
134 138 
134 139 
134 722 
135 137 
135 139 
135 1311 
136 138 
136 140 
136 1312 
141 147 
141 148 
141 391 
142 149 
142 150 
142 392 
143 147 
143 150 
143 591 
144 148 
144 149 
144 592 
145 147 
145 149 
145 723 
146 148 
146 150 
146 724 
151 157 
151 158 
151 241 
152 159 
152 160 
152 242 
153 157 
153 160 
153 531 
154 158 
154 159 
154 532 
155 157 
155 159 
155 681 
156 158 
156 160 
156 682 
161 167 
161 168 
161 191 
162 169 
162 170 
162 192 
163 167 
163 170 
163 461 
164 168 
164 169 
164 462 
165 167 
165 169 
165 801 
166 168 
166 170 
166 802 
171 177 
171 178 
172 179 
172 180 
173 177 
173 180 
174 178 
174 179 
175 177 
175 179 
175 903 
176 178 
176 180 
176 904 
181 187 
181 188 
181 431 
182 189 
182 190 
182 432 
183 187 
183 190 
183 711 
184 188 
184 189 
184 712 
185 187 
185 189 
185 1261 
186 188 
186 190 
186 1262 
191 197 
191 198 
192 199 
192 200 
193 197 
193 200 
193 481 
194 198 
194 199 
194 482 
195 197 
195 199 
195 781 
196 198 
196 200 
196 782 
201 207 
201 208 
201 273 
202 209 
202 210 
202 274 
203 207 
203 210 
203 573 
204 208 
204 209 
204 574 
205 207 
205 209 
205 733 
206 208 
206 210 
206 734 
211 217 
211 218 
211 333 
212 219 
212 220 
212 334 
213 217 
213 220 
213 533 
214 218 
214 219 
214 534 
215 217 
215 219 
215 1123 
216 218 
216 220 
216 1124 
221 227 
221 228 
222 229 
222 230 
223 227 
223 230 
223 351 
224 228 
224 229 
224 352 
225 227 
225 229 
225 821 
226 228 
226 230 
226 822 
231 237 
231 238 
231 601 
232 239 
232 240 
232 602 
233 237 
233 240 
233 961 
234 238 
234 239 
234 962 
235 237 
235 239 
235 1263 
236 238 
236 240 
236 1264 
241 247 
241 248 
242 249 
242 250 
243 247 
243 250 
243 851 
244 248 
244 249 
244 852 
245 247 
245 249 
245 1233 
246 248 
246 250 
246 1234 
251 257 
251 258 
251 791 
252 259 
252 260 
252 792 
253 257 
253 260 
253 911 
254 258 
254 259 
254 912 
255 257 
255 259 
255 1051 
256 258 
256 260 
256 1052 
261 267 
261 268 
262 269 
262 270 
263 267 
263 270 
263 501 
264 268 
264 269 
264 502 
265 267 
265 269 
265 603 
266 268 
266 270 
266 604 
271 277 
271 278 
272 279 
272 280 
273 277 
273 280 
274 278 
274 279 
275 277 
275 279 
275 1251 
276 278 
276 280 
276 1252 
281 287 
281 288 
282 289 
282 290 
283 287 
283 290 
283 361 
284 288 
284 289 
284 362 
285 287 
285 289 
285 1001 
286 288 
286 290 
286 1002 
291 297 
291 298 
291 605 
292 299 
292 300 
292 606 
293 297 
293 300 
293 651 
294 298 
294 299 
294 652 
295 297 
295 299 
295 1021 
296 298 
296 300 
296 1022 
301 307 
301 308 
301 1061 
302 309 
302 310 
302 1062 
303 307 
303 310 
303 1241 
304 308 
304 309 
304 1242 
305 307 
305 309 
305 1273 
306 308 
306 310 
306 1274 
311 317 
311 318 
311 433 
312 319 
312 320 
312 434 
313 317 
313 320 
313 735 
314 318 
314 319 
314 736 
315 317 
315 319 
315 963 
316 318 
316 320 
316 964 
321 327 
321 328 
321 561 
322 329 
322 330 
322 562 
323 327 
323 330 
323 1031 
324 328 
324 329 
324 1032 
325 327 
325 329 
325 1171 
326 328 
326 330 
326 1172 
331 337 
331 338 
332 339 
332 340 
333 337 
333 340 
334 338 
334 339 
335 337 
335 339 
335 1331 
336 338 
336 340 
336 1332 
341 347 
341 348 
342 349 
342 350 
343 347 
343 350 
343 823 
344 348 
344 349 
344 824 
345 347 
345 349 
345 1183 
346 348 
346 350 
346 1184 
351 357 
351 358 
352 359 
352 360 
353 357 
353 360 
353 411 
354 358 
354 359 
354 412 
355 357 
355 359 
355 831 
356 358 
356 360 
356 832 
361 367 
361 368 
362 369 
362 370 
363 367 
363 370 
363 991 
364 368 
364 369 
364 992 
365 367 
365 369 
365 1313 
366 368 
366 370 
366 1314 
371 377 
371 378 
371 883 
372 379 
372 380 
372 884 
373 377 
373 380 
373 1073 
374 378 
374 379 
374 1074 
375 377 
375 379 
375 1291 
376 378 
376 380 
376 1292 
381 387 
381 388 
381 491 
382 389 
382 390 
382 492 
383 387 
383 390 
383 1033 
384 388 
384 389 
384 1034 
385 387 
385 389 
385 1321 
386 388 
386 390 
386 1322 
391 397 
391 398 
392 399 
392 400 
393 397 
393 400 
393 951 
394 398 
394 399 
394 952 
395 397 
395 399 
395 1131 
396 398 
396 400 
396 1132 
401 407 
401 408 
402 409 
402 410 
403 407 
403 410 
404 408 
404 409 
405 407 
405 409 
405 1151 
406 408 
406 410 
406 1152 
411 417 
411 418 
412 419 
412 420 
413 417 
413 420 
413 1013 
414 418 
414 419 
414 1014 
415 417 
415 419 
415 1141 
416 418 
416 420 
416 1142 
421 427 
421 428 
421 563 
422 429 
422 430 
422 564 
423 427 
423 430 
423 1063 
424 428 
424 429 
424 1064 
425 427 
425 429 
425 1351 
426 428 
426 430 
426 1352 
431 437 
431 438 
432 439 
432 440 
433 437 
433 440 
434 438 
434 439 
435 437 
435 439 
435 943 
436 438 
436 440 
436 944 
441 447 
441 448 
441 683 
442 449 
442 450 
442 684 
443 447 
443 450 
443 913 
444 448 
444 449 
444 914 
445 447 
445 449 
445 1113 
446 448 
446 450 
446 1114 
451 457 
451 458 
452 459 
452 460 
453 457 
453 460 
453 741 
454 458 
454 459 
454 742 
455 457 
455 459 
455 1353 
456 458 
456 460 
456 1354 
461 467 
461 468 
462 469 
462 470 
463 467 
463 470 
463 833 
464 468 
464 469 
464 834 
465 467 
465 469 
465 891 
466 468 
466 470 
466 892 
471 477 
471 478 
471 581 
472 479 
472 480 
472 582 
473 477 
473 480 
473 685 
474 478 
474 479 
474 686 
475 477 
475 479 
475 1003 
476 478 
476 480 
476 1004 
481 487 
481 488 
482 489 
482 490 
483 487 
483 490 
483 783 
484 488 
484 489 
484 784 
485 487 
485 489 
485 953 
486 488 
486 490 
486 954 
491 497 
491 498 
492 499 
492 500 
493 497 
493 500 
493 633 
494 498 
494 499 
494 634 
495 497 
495 499 
495 885 
496 498 
496 500 
496 886 
501 507 
501 508 
502 509 
502 510 
503 507 
503 510 
503 1103 
504 508 
504 509 
504 1104 
505 507 
505 509 
505 1173 
506 508 
506 510 
506 1174 
511 517 
511 518 
511 551 
512 519 
512 520 
512 552 
513 517 
513 520 
513 701 
514 518 
514 519 
514 702 
515 517 
515 519 
515 1275 
516 518 
516 520 
516 1276 
521 527 
521 528 
521 593 
522 529 
522 530 
522 594 
523 527 
523 530 
523 621 
524 528 
524 529 
524 622 
525 527 
525 529 
525 973 
526 528 
526 530 
526 974 
531 537 
531 538 
532 539 
532 540 
533 537 
533 540 
534 538 
534 539 
535 537 
535 539 
535 653 
536 538 
536 540 
536 654 
541 547 
541 548 
542 549 
542 550 
543 547 
543 550 
543 975 
544 548 
544 549 
544 976 
545 547 
545 549 
545 1323 
546 548 
546 550 
546 1324 
551 557 
551 558 
552 559 
552 560 
553 557 
553 560 
553 703 
554 558 
554 559 
554 704 
555 557 
555 559 
555 1075 
556 558 
556 560 
556 1076 
561 567 
561 568 
562 569 
562 570 
563 567 
563 570 
564 568 
564 569 
565 567 
565 569 
565 873 
566 568 
566 570 
566 874 
571 577 
571 578 
572 579 
572 580 
573 577 
573 580 
574 578 
574 579 
575 577 
575 579 
575 641 
576 578 
576 580 
576 642 
581 587 
581 588 
582 589 
582 590 
583 587 
583 590 
583 1133 
584 588 
584 589 
584 1134 
585 587 
585 589 
585 1213 
586 588 
586 590 
586 1214 
591 597 
591 598 
592 599 
592 600 
593 597 
593 600 
594 598 
594 599 
595 597 
595 599 
595 655 
596 598 
596 600 
596 656 
601 607 
601 608 
602 609 
602 610 
603 607 
603 610 
604 608 
604 609 
605 607 
605 609 
606 608 
606 610 
611 617 
611 618 
612 619 
612 620 
613 617 
613 620 
613 1191 
614 618 
614 619 
614 1192 
615 617 
615 619 
615 1315 
616 618 
616 620 
616 1316 
621 627 
621 628 
622 629 
622 630 
623 627 
623 630 
623 853 
624 628 
624 629 
624 854 
625 627 
625 629 
625 1355 
626 628 
626 630 
626 1356 
631 637 
631 638 
632 639 
632 640 
633 637 
633 640 
634 638 
634 639 
635 637 
635 639 
635 693 
636 638 
636 640 
636 694 
641 647 
641 648 
642 649 
642 650 
643 647 
643 650 
643 803 
644 648 
644 649 
644 804 
645 647 
645 649 
645 1053 
646 648 
646 650 
646 1054 
651 657 
651 658 
652 659 
652 660 
653 657 
653 660 
654 658 
654 659 
655 657 
655 659 
656 658 
656 660 
661 667 
661 668 
662 669 
662 670 
663 667 
663 670 
663 763 
664 668 
664 669 
664 764 
665 667 
665 669 
665 1023 
666 668 
666 670 
666 1024 
671 677 
671 678 
672 679 
672 680 
673 677 
673 680 
673 713 
674 678 
674 679 
674 714 
675 677 
675 679 
675 1143 
676 678 
676 680 
676 1144 
681 687 
681 688 
682 689 
682 690 
683 687 
683 690 
684 688 
684 689 
685 687 
685 689 
686 688 
686 690 
691 697 
691 698 
692 699 
692 700 
693 697 
693 700 
694 698 
694 699 
695 697 
695 699 
695 1081 
696 698 
696 700 
696 1082 
701 707 
701 708 
702 709 
702 710 
703 707 
703 710 
704 708 
704 709 
705 707 
705 709 
705 1201 
706 708 
706 710 
706 1202 
711 717 
711 718 
712 719 
712 720 
713 717 
713 720 
714 718 
714 719 
715 717 
715 719 
715 841 
716 718 
716 720 
716 842 
721 727 
721 728 
722 729 
722 730 
723 727 
723 730 
724 728 
724 729 
725 727 
725 729 
725 771 
726 728 
726 730 
726 772 
731 737 
731 738 
732 739 
732 740 
733 737 
733 740 
734 738 
734 739 
735 737 
735 739 
736 738 
736 740 
741 747 
741 748 
742 749 
742 750 
743 747 
743 750 
743 1203 
744 748 
744 749 
744 1204 
745 747 
745 749 
745 1243 
746 748 
746 750 
746 1244 
751 757 
751 758 
752 759 
752 760 
753 757 
753 760 
753 875 
754 758 
754 759 
754 876 
755 757 
755 759 
755 1221 
756 758 
756 760 
756 1222 
761 767 
761 768 
762 769 
762 770 
763 767 
763 770 
764 768 
764 769 
765 767 
765 769 
765 893 
766 768 
766 770 
766 894 
771 777 
771 778 
772 779 
772 780 
773 777 
773 780 
773 855 
774 778 
774 779 
774 856 
775 777 
775 779 
775 1341 
776 778 
776 780 
776 1342 
781 787 
781 788 
782 789 
782 790 
783 787 
783 790 
784 788 
784 789 
785 787 
785 789 
785 825 
786 788 
786 790 
786 826 
791 797 
791 798 
792 799 
792 800 
793 797 
793 800 
793 1163 
794 798 
794 799 
794 1164 
795 797 
795 799 
795 1193 
796 798 
796 800 
796 1194 
801 807 
801 808 
802 809 
802 810 
803 807 
803 810 
804 808 
804 809 
805 807 
805 809 
805 1293 
806 808 
806 810 
806 1294 
811 817 
811 818 
811 1035 
812 819 
812 820 
812 1036 
813 817 
813 820 
813 1083 
814 818 
814 819 
814 1084 
815 817 
815 819 
815 1281 
816 818 
816 820 
816 1282 
821 827 
821 828 
822 829 
822 830 
823 827 
823 830 
824 828 
824 829 
825 827 
825 829 
826 828 
826 830 
831 837 
831 838 
832 839 
832 840 
833 837 
833 840 
834 838 
834 839 
835 837 
835 839 
835 1085 
836 838 
836 840 
836 1086 
841 847 
841 848 
842 849 
842 850 
843 847 
843 850 
843 1005 
844 848 
844 849 
844 1006 
845 847 
845 849 
845 1091 
846 848 
846 850 
846 1092 
851 857 
851 858 
852 859 
852 860 
853 857 
853 860 
854 858 
854 859 
855 857 
855 859 
856 858 
856 860 
861 867 
861 868 
861 923 
862 869 
862 870 
862 924 
863 867 
863 870 
863 1145 
864 868 
864 869 
864 1146 
865 867 
865 869 
865 1301 
866 868 
866 870 
866 1302 
871 877 
871 878 
872 879 
872 880 
873 877 
873 880 
874 878 
874 879 
875 877 
875 879 
876 878 
876 880 
881 887 
881 888 
882 889 
882 890 
883 887 
883 890 
884 888 
884 889 
885 887 
885 889 
886 888 
886 890 
891 897 
891 898 
892 899 
892 900 
893 897 
893 900 
894 898 
894 899 
895 897 
895 899 
895 1333 
896 898 
896 900 
896 1334 
901 907 
901 908 
902 909 
902 910 
903 907 
903 910 
904 908 
904 909 
905 907 
905 909 
905 955 
906 908 
906 910 
906 956 
911 917 
911 918 
912 919 
912 920 
913 917 
913 920 
914 918 
914 919 
915 917 
915 919 
915 1185 
916 918 
916 920 
916 1186 
921 927 
921 928 
922 929 
922 930 
923 927 
923 930 
924 928 
924 929 
925 927 
925 929 
925 1015 
926 928 
926 930 
926 1016 
931 937 
931 938 
931 981 
932 939 
932 940 
932 982 
933 937 
933 940 
933 1153 
934 938 
934 939 
934 1154 
935 937 
935 939 
935 1245 
936 938 
936 940 
936 1246 
941 947 
941 948 
942 949 
942 950 
943 947 
943 950 
944 948 
944 949 
945 947 
945 949 
945 983 
946 948 
946 950 
946 984 
951 957 
951 958 
952 959 
952 960 
953 957 
953 960 
954 958 
954 959 
955 957 
955 959 
956 958 
956 960 
961 967 
961 968 
962 969 
962 970 
963 967 
963 970 
964 968 
964 969 
965 967 
965 969 
965 1283 
966 968 
966 970 
966 1284 
971 977 
971 978 
972 979 
972 980 
973 977 
973 980 
974 978 
974 979 
975 977 
975 979 
976 978 
976 980 
981 987 
981 988 
982 989 
982 990 
983 987 
983 990 
984 988 
984 989 
985 987 
985 989 
985 1205 
986 988 
986 990 
986 1206 
991 997 
991 998 
992 999 
992 1000 
993 997 
993 1000 
993 1093 
994 998 
994 999 
994 1094 
995 997 
995 999 
995 1295 
996 998 
996 1000 
996 1296 
1001 1007 
1001 1008 
1002 1009 
1002 1010 
1003 1007 
1003 1010 
1004 1008 
1004 1009 
1005 1007 
1005 1009 
1006 1008 
1006 1010 
1011 1017 
1011 1018 
1012 1019 
1012 1020 
1013 1017 
1013 1020 
1014 1018 
1014 1019 
1015 1017 
1015 1019 
1016 1018 
1016 1020 
1021 1027 
1021 1028 
1022 1029 
1022 1030 
1023 1027 
1023 1030 
1024 1028 
1024 1029 
1025 1027 
1025 1029 
1025 1175 
1026 1028 
1026 1030 
1026 1176 
1031 1037 
1031 1038 
1032 1039 
1032 1040 
1033 1037 
1033 1040 
1034 1038 
1034 1039 
1035 1037 
1035 1039 
1036 1038 
1036 1040 
1041 1047 
1041 1048 
1042 1049 
1042 1050 
1043 1047 
1043 1050 
1043 1165 
1044 1048 
1044 1049 
1044 1166 
1045 1047 
1045 1049 
1045 1223 
1046 1048 
1046 1050 
1046 1224 
1051 1057 
1051 1058 
1052 1059 
1052 1060 
1053 1057 
1053 1060 
1054 1058 
1054 1059 
1055 1057 
1055 1059 
1055 1343 
1056 1058 
1056 1060 
1056 1344 
1061 1067 
1061 1068 
1062 1069 
1062 1070 
1063 1067 
1063 1070 
1064 1068 
1064 1069 
1065 1067 
1065 1069 
1065 1135 
1066 1068 
1066 1070 
1066 1136 
1071 1077 
1071 1078 
1072 1079 
1072 1080 
1073 1077 
1073 1080 
1074 1078 
1074 1079 
1075 1077 
1075 1079 
1076 1078 
1076 1080 
1081 1087 
1081 1088 
1082 1089 
1082 1090 
1083 1087 
1083 1090 
1084 1088 
1084 1089 
1085 1087 
1085 1089 
1086 1088 
1086 1090 
1091 1097 
1091 1098 
1092 1099 
1092 1100 
1093 1097 
1093 1100 
1094 1098 
1094 1099 
1095 1097 
1095 1099 
1095 1285 
1096 1098 
1096 1100 
1096 1286 
1101 1107 
1101 1108 
1102 1109 
1102 1110 
1103 1107 
1103 1110 
1104 1108 
1104 1109 
1105 1107 
1105 1109 
1105 1303 
1106 1108 
1106 1110 
1106 1304 
1111 1117 
1111 1118 
1112 1119 
1112 1120 
1113 1117 
1113 1120 
1114 1118 
1114 1119 
1115 1117 
1115 1119 
1115 1345 
1116 1118 
1116 1120 
1116 1346 
1121 1127 
1121 1128 
1122 1129 
1122 1130 
1123 1127 
1123 1130 
1124 1128 
1124 1129 
1125 1127 
1125 1129 
1125 1265 
1126 1128 
1126 1130 
1126 1266 
1131 1137 
1131 1138 
1132 1139 
1132 1140 
1133 1137 
1133 1140 
1134 1138 
1134 1139 
1135 1137 
1135 1139 
1136 1138 
1136 1140 
1141 1147 
1141 1148 
1142 1149 
1142 1150 
1143 1147 
1143 1150 
1144 1148 
1144 1149 
1145 1147 
1145 1149 
1146 1148 
1146 1150 
1151 1157 
1151 1158 
1152 1159 
1152 1160 
1153 1157 
1153 1160 
1154 1158 
1154 1159 
1155 1157 
1155 1159 
1155 1195 
1156 1158 
1156 1160 
1156 1196 
1161 1167 
1161 1168 
1162 1169 
1162 1170 
1163 1167 
1163 1170 
1164 1168 
1164 1169 
1165 1167 
1165 1169 
1166 1168 
1166 1170 
1171 1177 
1171 1178 
1172 1179 
1172 1180 
1173 1177 
1173 1180 
1174 1178 
1174 1179 
1175 1177 
1175 1179 
1176 1178 
1176 1180 
1181 1187 
1181 1188 
1182 1189 
1182 1190 
1183 1187 
1183 1190 
1184 1188 
1184 1189 
1185 1187 
1185 1189 
1186 1188 
1186 1190 
1191 1197 
1191 1198 
1192 1199 
1192 1200 
1193 1197 
1193 1200 
1194 1198 
1194 1199 
1195 1197 
1195 1199 
1196 1198 
1196 1200 
1201 1207 
1201 1208 
1202 1209 
1202 1210 
1203 1207 
1203 1210 
1204 1208 
1204 1209 
1205 1207 
1205 1209 
1206 1208 
1206 1210 
1211 1217 
1211 1218 
1212 1219 
1212 1220 
1213 1217 
1213 1220 
1214 1218 
1214 1219 
1215 1217 
1215 1219 
1215 1253 
1216 1218 
1216 1220 
1216 1254 
1221 1227 
1221 1228 
1222 1229 
1222 1230 
1223 1227 
1223 1230 
1224 1228 
1224 1229 
1225 1227 
1225 1229 
1225 1235 
1226 1228 
1226 1230 
1226 1236 
1231 1237 
1231 1238 
1232 1239 
1232 1240 
1233 1237 
1233 1240 
1234 1238 
1234 1239 
1235 1237 
1235 1239 
1236 1238 
1236 1240 
1241 1247 
1241 1248 
1242 1249 
1242 1250 
1243 1247 
1243 1250 
1244 1248 
1244 1249 
1245 1247 
1245 1249 
1246 1248 
1246 1250 
1251 1257 
1251 1258 
1252 1259 
1252 1260 
1253 1257 
1253 1260 
1254 1258 
1254 1259 
1255 1257 
1255 1259 
1255 1325 
1256 1258 
1256 1260 
1256 1326 
1261 1267 
1261 1268 
1262 1269 
1262 1270 
1263 1267 
1263 1270 
1264 1268 
1264 1269 
1265 1267 
1265 1269 
1266 1268 
1266 1270 
1271 1277 
1271 1278 
1272 1279 
1272 1280 
1273 1277 
1273 1280 
1274 1278 
1274 1279 
1275 1277 
1275 1279 
1276 1278 
1276 1280 
1281 1287 
1281 1288 
1282 1289 
1282 1290 
1283 1287 
1283 1290 
1284 1288 
1284 1289 
1285 1287 
1285 1289 
1286 1288 
1286 1290 
1291 1297 
1291 1298 
1292 1299 
1292 1300 
1293 1297 
1293 1300 
1294 1298 
1294 1299 
1295 1297 
1295 1299 
1296 1298 
1296 1300 
1301 1307 
1301 1308 
1302 1309 
1302 1310 
1303 1307 
1303 1310 
1304 1308 
1304 1309 
1305 1307 
1305 1309 
1305 1335 
1306 1308 
1306 1310 
1306 1336 
1311 1317 
1311 1318 
1312 1319 
1312 1320 
1313 1317 
1313 1320 
1314 1318 
1314 1319 
1315 1317 
1315 1319 
1316 1318 
1316 1320 
1321 1327 
1321 1328 
1322 1329 
1322 1330 
1323 1327 
1323 1330 
1324 1328 
1324 1329 
1325 1327 
1325 1329 
1326 1328 
1326 1330 
1331 1337 
1331 1338 
1332 1339 
1332 1340 
1333 1337 
1333 1340 
1334 1338 
1334 1339 
1335 1337 
1335 1339 
1336 1338 
1336 1340 
1341 1347 
1341 1348 
1342 1349 
1342 1350 
1343 1347 
1343 1350 
1344 1348 
1344 1349 
1345 1347 
1345 1349 
1346 1348 
1346 1350 
1351 1357 
1351 1358 
1352 1359 
1352 1360 
1353 1357 
1353 1360 
1354 1358 
1354 1359 
1355 1357 
1355 1359 
1356 1358 
1356 1360 
